Problem:    giocoCoiNumeri
Rows:       36
Columns:    37 (36 integer, 36 binary)
Non-zeros:  123
Status:     INTEGER OPTIMAL
Objective:  z = 999 (MAXimum)

   No.   Row name        Activity     Lower bound   Upper bound
------ ------------    ------------- ------------- -------------
     1 Assign[1]                   1             1             = 
     2 Assign[2]                   1             1             = 
     3 Assign[3]                   1             1             = 
     4 Assign[4]                   1             1             = 
     5 Assign[5]                   1             1             = 
     6 Assign[6]                   1             1             = 
     7 Assign[7]                   1             1             = 
     8 Assign[8]                   1             1             = 
     9 Assign[9]                   1             1             = 
    10 PosizioneDeiPesi[1,1]
                                  -1                          -0 
    11 PosizioneDeiPesi[1,2]
                                   0                          -0 
    12 PosizioneDeiPesi[1,3]
                                   0                          -0 
    13 PosizioneDeiPesi[2,1]
                                  -1                          -0 
    14 PosizioneDeiPesi[2,2]
                                   0                          -0 
    15 PosizioneDeiPesi[2,3]
                                   0                          -0 
    16 PosizioneDeiPesi[3,1]
                                   0                          -0 
    17 PosizioneDeiPesi[3,2]
                                   0                          -0 
    18 PosizioneDeiPesi[3,3]
                                  -1                          -0 
    19 PosizioneDeiPesi[4,1]
                                   0                          -0 
    20 PosizioneDeiPesi[4,2]
                                   0                          -0 
    21 PosizioneDeiPesi[4,3]
                                   0                          -0 
    22 PosizioneDeiPesi[5,1]
                                   0                          -0 
    23 PosizioneDeiPesi[5,2]
                                   0                          -0 
    24 PosizioneDeiPesi[5,3]
                                   0                          -0 
    25 PosizioneDeiPesi[6,1]
                                   0                          -0 
    26 PosizioneDeiPesi[6,2]
                                   0                          -0 
    27 PosizioneDeiPesi[6,3]
                                  -1                          -0 
    28 PosizioneDeiPesi[7,1]
                                   0                          -0 
    29 PosizioneDeiPesi[7,2]
                                   0                          -0 
    30 PosizioneDeiPesi[7,3]
                                   0                          -0 
    31 PosizioneDeiPesi[8,1]
                                   0                          -0 
    32 PosizioneDeiPesi[8,2]
                                   0                          -0 
    33 PosizioneDeiPesi[8,3]
                                   0                          -0 
    34 UltimaPosizione
                                   1             1             = 
    35 Numero                      0            -0             = 
    36 z                         999                             

   No. Column name       Activity     Lower bound   Upper bound
------ ------------    ------------- ------------- -------------
     1 x[1,0]       *              1             0             1 
     2 x[1,1]       *              0             0             1 
     3 x[1,2]       *              0             0             1 
     4 x[1,3]       *              0             0             1 
     5 x[2,0]       *              1             0             1 
     6 x[2,1]       *              0             0             1 
     7 x[2,2]       *              0             0             1 
     8 x[2,3]       *              0             0             1 
     9 x[3,0]       *              1             0             1 
    10 x[3,1]       *              0             0             1 
    11 x[3,2]       *              0             0             1 
    12 x[3,3]       *              0             0             1 
    13 x[4,0]       *              0             0             1 
    14 x[4,1]       *              0             0             1 
    15 x[4,2]       *              1             0             1 
    16 x[4,3]       *              0             0             1 
    17 x[5,0]       *              0             0             1 
    18 x[5,1]       *              1             0             1 
    19 x[5,2]       *              0             0             1 
    20 x[5,3]       *              0             0             1 
    21 x[6,0]       *              1             0             1 
    22 x[6,1]       *              0             0             1 
    23 x[6,2]       *              0             0             1 
    24 x[6,3]       *              0             0             1 
    25 x[7,0]       *              0             0             1 
    26 x[7,1]       *              0             0             1 
    27 x[7,2]       *              1             0             1 
    28 x[7,3]       *              0             0             1 
    29 x[8,0]       *              0             0             1 
    30 x[8,1]       *              1             0             1 
    31 x[8,2]       *              0             0             1 
    32 x[8,3]       *              0             0             1 
    33 x[9,0]       *              1             0             1 
    34 x[9,1]       *              0             0             1 
    35 x[9,2]       *              0             0             1 
    36 x[9,3]       *              0             0             1 
    37 n                         999                        1000 

Integer feasibility conditions:

KKT.PE: max.abs.err = 0.00e+000 on row 0
        max.rel.err = 0.00e+000 on row 0
        High quality

KKT.PB: max.abs.err = 0.00e+000 on row 0
        max.rel.err = 0.00e+000 on row 0
        High quality

End of output
